c Result of efficient AIG-to-CNF conversion using package CNF
p cnf 406 1625
-2 3 244 246 248 0
-2 3 -244 -246 248 0
2 -248 0
2 -244 246 0
2 -3 0
2 244 -246 0
3 4 -126 0
3 -4 126 0
-3 -4 -126 0
-3 4 126 0
4 -5 122 0
4 5 -122 0
-4 5 122 0
-4 -5 -122 0
5 -343 -37 0
5 -343 -6 0
5 -6 -37 0
-5 6 37 0
-5 343 37 0
-5 343 6 0
-6 -7 -8 0
-6 7 8 0
6 7 -8 0
6 -7 8 0
7 344 -375 0
7 -344 375 0
-7 -344 -375 0
-7 344 375 0
8 -345 -376 0
8 -376 -9 0
8 -345 -9 0
-8 345 9 0
-8 376 9 0
-8 345 376 0
9 -346 -377 0
9 -377 -10 0
9 -346 -10 0
-9 346 10 0
-9 377 10 0
-9 346 377 0
10 -347 -378 0
10 -378 -11 0
10 -347 -11 0
-10 347 11 0
-10 378 11 0
-10 347 378 0
11 -348 -379 0
11 -379 -12 0
11 -348 -12 0
-11 348 12 0
-11 379 12 0
-11 348 379 0
12 -349 -380 0
12 -380 -13 0
12 -349 -13 0
-12 349 13 0
-12 380 13 0
-12 349 380 0
13 -350 -381 0
13 -381 -14 0
13 -350 -14 0
-13 350 14 0
-13 381 14 0
-13 350 381 0
14 -351 -382 0
14 -382 -15 0
14 -351 -15 0
-14 351 15 0
-14 382 15 0
-14 351 382 0
15 -352 -383 0
15 -383 -16 0
15 -352 -16 0
-15 352 16 0
-15 383 16 0
-15 352 383 0
16 -353 -384 0
16 -384 -17 0
16 -353 -17 0
-16 353 17 0
-16 384 17 0
-16 353 384 0
17 -354 -385 0
17 -385 -18 0
17 -354 -18 0
-17 354 18 0
-17 385 18 0
-17 354 385 0
18 -355 -386 0
18 -386 -19 0
18 -355 -19 0
-18 355 19 0
-18 386 19 0
-18 355 386 0
19 -356 -387 0
19 -387 -20 0
19 -356 -20 0
-19 356 20 0
-19 387 20 0
-19 356 387 0
20 -357 -388 0
20 -388 -21 0
20 -357 -21 0
-20 357 21 0
-20 388 21 0
-20 357 388 0
21 -358 -389 0
21 -389 -22 0
21 -358 -22 0
-21 358 22 0
-21 389 22 0
-21 358 389 0
22 -359 -390 0
22 -390 -23 0
22 -359 -23 0
-22 359 23 0
-22 390 23 0
-22 359 390 0
23 -360 -391 0
23 -391 -24 0
23 -360 -24 0
-23 360 24 0
-23 391 24 0
-23 360 391 0
24 -361 -392 0
24 -392 -25 0
24 -361 -25 0
-24 361 25 0
-24 392 25 0
-24 361 392 0
25 -362 -393 0
25 -393 -26 0
25 -362 -26 0
-25 362 26 0
-25 393 26 0
-25 362 393 0
26 -363 -394 0
26 -394 -27 0
26 -363 -27 0
-26 363 27 0
-26 394 27 0
-26 363 394 0
27 -364 -395 0
27 -395 -28 0
27 -364 -28 0
-27 364 28 0
-27 395 28 0
-27 364 395 0
28 -365 -396 0
28 -396 -29 0
28 -365 -29 0
-28 365 29 0
-28 396 29 0
-28 365 396 0
29 -366 -397 0
29 -397 -30 0
29 -366 -30 0
-29 366 30 0
-29 397 30 0
-29 366 397 0
30 -367 -398 0
30 -398 -31 0
30 -367 -31 0
-30 367 31 0
-30 398 31 0
-30 367 398 0
31 -368 -399 0
31 -399 -32 0
31 -368 -32 0
-31 368 32 0
-31 399 32 0
-31 368 399 0
32 -369 -400 0
32 -400 -33 0
32 -369 -33 0
-32 369 33 0
-32 400 33 0
-32 369 400 0
33 -370 -401 0
33 -401 -34 0
33 -370 -34 0
-33 370 34 0
-33 401 34 0
-33 370 401 0
34 -371 -402 0
34 -402 -35 0
34 -371 -35 0
-34 371 35 0
-34 402 35 0
-34 371 402 0
35 -372 -403 0
35 -403 -36 0
35 -372 -36 0
-35 372 36 0
-35 403 36 0
-35 372 403 0
36 -373 -404 0
-36 373 0
-36 404 0
37 -344 -40 0
37 -344 -38 0
37 -38 -40 0
-37 38 40 0
-37 344 40 0
-37 344 38 0
-38 -9 -39 0
-38 9 39 0
38 9 -39 0
38 -9 39 0
39 345 -376 0
39 -345 376 0
-39 -345 -376 0
-39 345 376 0
40 -345 -43 0
40 -345 -41 0
40 -41 -43 0
-40 41 43 0
-40 345 43 0
-40 345 41 0
-41 -10 -42 0
-41 10 42 0
41 10 -42 0
41 -10 42 0
42 346 -377 0
42 -346 377 0
-42 -346 -377 0
-42 346 377 0
43 -346 -46 0
43 -346 -44 0
43 -44 -46 0
-43 44 46 0
-43 346 46 0
-43 346 44 0
-44 -11 -45 0
-44 11 45 0
44 11 -45 0
44 -11 45 0
45 347 -378 0
45 -347 378 0
-45 -347 -378 0
-45 347 378 0
46 -347 -49 0
46 -347 -47 0
46 -47 -49 0
-46 47 49 0
-46 347 49 0
-46 347 47 0
-47 -12 -48 0
-47 12 48 0
47 12 -48 0
47 -12 48 0
48 348 -379 0
48 -348 379 0
-48 -348 -379 0
-48 348 379 0
49 -348 -52 0
49 -348 -50 0
49 -50 -52 0
-49 50 52 0
-49 348 52 0
-49 348 50 0
-50 -13 -51 0
-50 13 51 0
50 13 -51 0
50 -13 51 0
51 349 -380 0
51 -349 380 0
-51 -349 -380 0
-51 349 380 0
52 -349 -55 0
52 -349 -53 0
52 -53 -55 0
-52 53 55 0
-52 349 55 0
-52 349 53 0
-53 -14 -54 0
-53 14 54 0
53 14 -54 0
53 -14 54 0
54 350 -381 0
54 -350 381 0
-54 -350 -381 0
-54 350 381 0
55 -350 -58 0
55 -350 -56 0
55 -56 -58 0
-55 56 58 0
-55 350 58 0
-55 350 56 0
-56 -15 -57 0
-56 15 57 0
56 15 -57 0
56 -15 57 0
57 351 -382 0
57 -351 382 0
-57 -351 -382 0
-57 351 382 0
58 -351 -61 0
58 -351 -59 0
58 -59 -61 0
-58 59 61 0
-58 351 61 0
-58 351 59 0
-59 -16 -60 0
-59 16 60 0
59 16 -60 0
59 -16 60 0
60 352 -383 0
60 -352 383 0
-60 -352 -383 0
-60 352 383 0
61 -352 -64 0
61 -352 -62 0
61 -62 -64 0
-61 62 64 0
-61 352 64 0
-61 352 62 0
-62 -17 -63 0
-62 17 63 0
62 17 -63 0
62 -17 63 0
63 353 -384 0
63 -353 384 0
-63 -353 -384 0
-63 353 384 0
64 -353 -67 0
64 -353 -65 0
64 -65 -67 0
-64 65 67 0
-64 353 67 0
-64 353 65 0
-65 -18 -66 0
-65 18 66 0
65 18 -66 0
65 -18 66 0
66 354 -385 0
66 -354 385 0
-66 -354 -385 0
-66 354 385 0
67 -354 -70 0
67 -354 -68 0
67 -68 -70 0
-67 68 70 0
-67 354 70 0
-67 354 68 0
-68 -19 -69 0
-68 19 69 0
68 19 -69 0
68 -19 69 0
69 355 -386 0
69 -355 386 0
-69 -355 -386 0
-69 355 386 0
70 -355 -73 0
70 -355 -71 0
70 -71 -73 0
-70 71 73 0
-70 355 73 0
-70 355 71 0
-71 -20 -72 0
-71 20 72 0
71 20 -72 0
71 -20 72 0
72 356 -387 0
72 -356 387 0
-72 -356 -387 0
-72 356 387 0
73 -356 -76 0
73 -356 -74 0
73 -74 -76 0
-73 74 76 0
-73 356 76 0
-73 356 74 0
-74 -21 -75 0
-74 21 75 0
74 21 -75 0
74 -21 75 0
75 357 -388 0
75 -357 388 0
-75 -357 -388 0
-75 357 388 0
76 -357 -79 0
76 -357 -77 0
76 -77 -79 0
-76 77 79 0
-76 357 79 0
-76 357 77 0
-77 -22 -78 0
-77 22 78 0
77 22 -78 0
77 -22 78 0
78 358 -389 0
78 -358 389 0
-78 -358 -389 0
-78 358 389 0
79 -358 -82 0
79 -358 -80 0
79 -80 -82 0
-79 80 82 0
-79 358 82 0
-79 358 80 0
-80 -23 -81 0
-80 23 81 0
80 23 -81 0
80 -23 81 0
81 359 -390 0
81 -359 390 0
-81 -359 -390 0
-81 359 390 0
82 -359 -85 0
82 -359 -83 0
82 -83 -85 0
-82 83 85 0
-82 359 85 0
-82 359 83 0
-83 -24 -84 0
-83 24 84 0
83 24 -84 0
83 -24 84 0
84 360 -391 0
84 -360 391 0
-84 -360 -391 0
-84 360 391 0
85 -360 -88 0
85 -360 -86 0
85 -86 -88 0
-85 86 88 0
-85 360 88 0
-85 360 86 0
-86 -25 -87 0
-86 25 87 0
86 25 -87 0
86 -25 87 0
87 361 -392 0
87 -361 392 0
-87 -361 -392 0
-87 361 392 0
88 -361 -91 0
88 -361 -89 0
88 -89 -91 0
-88 89 91 0
-88 361 91 0
-88 361 89 0
-89 -26 -90 0
-89 26 90 0
89 26 -90 0
89 -26 90 0
90 362 -393 0
90 -362 393 0
-90 -362 -393 0
-90 362 393 0
91 -362 -94 0
91 -362 -92 0
91 -92 -94 0
-91 92 94 0
-91 362 94 0
-91 362 92 0
-92 -27 -93 0
-92 27 93 0
92 27 -93 0
92 -27 93 0
93 363 -394 0
93 -363 394 0
-93 -363 -394 0
-93 363 394 0
94 -363 -97 0
94 -363 -95 0
94 -95 -97 0
-94 95 97 0
-94 363 97 0
-94 363 95 0
-95 -28 -96 0
-95 28 96 0
95 28 -96 0
95 -28 96 0
96 364 -395 0
96 -364 395 0
-96 -364 -395 0
-96 364 395 0
97 -364 -100 0
97 -364 -98 0
97 -98 -100 0
-97 98 100 0
-97 364 100 0
-97 364 98 0
-98 -29 -99 0
-98 29 99 0
98 29 -99 0
98 -29 99 0
99 365 -396 0
99 -365 396 0
-99 -365 -396 0
-99 365 396 0
100 -365 -103 0
100 -365 -101 0
100 -101 -103 0
-100 101 103 0
-100 365 103 0
-100 365 101 0
-101 -30 -102 0
-101 30 102 0
101 30 -102 0
101 -30 102 0
102 366 -397 0
102 -366 397 0
-102 -366 -397 0
-102 366 397 0
103 -366 -106 0
103 -366 -104 0
103 -104 -106 0
-103 104 106 0
-103 366 106 0
-103 366 104 0
-104 -31 -105 0
-104 31 105 0
104 31 -105 0
104 -31 105 0
105 367 -398 0
105 -367 398 0
-105 -367 -398 0
-105 367 398 0
106 -367 -107 0
106 -107 -109 0
106 -367 -109 0
-106 367 109 0
-106 107 109 0
-106 367 107 0
107 32 -108 0
107 -32 108 0
-107 -32 -108 0
-107 32 108 0
108 368 -399 0
108 -368 399 0
-108 -368 -399 0
-108 368 399 0
109 -368 -110 0
109 -110 -112 0
109 -368 -112 0
-109 368 112 0
-109 110 112 0
-109 368 110 0
110 33 -111 0
110 -33 111 0
-110 -33 -111 0
-110 33 111 0
111 369 -400 0
111 -369 400 0
-111 -369 -400 0
-111 369 400 0
112 -369 -113 0
112 -113 -115 0
112 -369 -115 0
-112 369 115 0
-112 113 115 0
-112 369 113 0
113 34 -114 0
113 -34 114 0
-113 -34 -114 0
-113 34 114 0
114 370 -401 0
114 -370 401 0
-114 -370 -401 0
-114 370 401 0
115 -370 -116 0
115 -116 -118 0
115 -370 -118 0
-115 370 118 0
-115 116 118 0
-115 370 116 0
116 35 -117 0
116 -35 117 0
-116 -35 -117 0
-116 35 117 0
117 371 -402 0
117 -371 402 0
-117 -371 -402 0
-117 371 402 0
118 -371 -119 0
118 -119 -121 0
118 -371 -121 0
-118 371 121 0
-118 119 121 0
-118 371 119 0
119 36 -120 0
119 -36 120 0
-119 -36 -120 0
-119 36 120 0
120 372 -403 0
120 -372 403 0
-120 -372 -403 0
-120 372 403 0
121 -373 404 -405 0
121 -372 -404 -405 0
121 -372 373 -404 0
121 -372 -373 404 0
-121 372 405 0
-121 372 -404 0
-121 373 404 0
-121 -373 -404 405 0
-122 123 124 0
-122 -123 -124 0
122 -123 124 0
122 123 -124 0
123 -344 -375 0
123 -375 -8 0
123 -344 -8 0
-123 344 8 0
-123 375 8 0
-123 344 375 0
-124 374 125 0
-124 -374 -125 0
124 -374 125 0
124 374 -125 0
-125 -342 -343 0
-125 342 343 0
125 342 -343 0
125 -342 343 0
126 127 -156 0
126 -127 156 0
-126 -127 -156 0
-126 127 156 0
127 124 -128 0
127 -124 128 0
-127 -124 -128 0
-127 124 128 0
128 -343 -344 0
128 -344 -129 0
128 -343 -129 0
-128 343 129 0
-128 344 129 0
-128 343 344 0
129 -344 -345 0
129 -345 -130 0
129 -344 -130 0
-129 344 130 0
-129 345 130 0
-129 344 345 0
130 -345 -346 0
130 -346 -131 0
130 -345 -131 0
-130 345 131 0
-130 346 131 0
-130 345 346 0
131 -346 -347 0
131 -347 -132 0
131 -346 -132 0
-131 346 132 0
-131 347 132 0
-131 346 347 0
132 -347 -348 0
132 -348 -133 0
132 -347 -133 0
-132 347 133 0
-132 348 133 0
-132 347 348 0
133 -348 -349 0
133 -349 -134 0
133 -348 -134 0
-133 348 134 0
-133 349 134 0
-133 348 349 0
134 -349 -350 0
134 -350 -135 0
134 -349 -135 0
-134 349 135 0
-134 350 135 0
-134 349 350 0
135 -350 -351 0
135 -351 -136 0
135 -350 -136 0
-135 350 136 0
-135 351 136 0
-135 350 351 0
136 -351 -352 0
136 -352 -137 0
136 -351 -137 0
-136 351 137 0
-136 352 137 0
-136 351 352 0
137 -352 -353 0
137 -353 -138 0
137 -352 -138 0
-137 352 138 0
-137 353 138 0
-137 352 353 0
138 -353 -354 0
138 -354 -139 0
138 -353 -139 0
-138 353 139 0
-138 354 139 0
-138 353 354 0
139 -354 -355 0
139 -355 -140 0
139 -354 -140 0
-139 354 140 0
-139 355 140 0
-139 354 355 0
140 -355 -356 0
140 -356 -141 0
140 -355 -141 0
-140 355 141 0
-140 356 141 0
-140 355 356 0
141 -356 -357 0
141 -357 -142 0
141 -356 -142 0
-141 356 142 0
-141 357 142 0
-141 356 357 0
142 -357 -358 0
142 -358 -143 0
142 -357 -143 0
-142 357 143 0
-142 358 143 0
-142 357 358 0
143 -358 -359 0
143 -359 -144 0
143 -358 -144 0
-143 358 144 0
-143 359 144 0
-143 358 359 0
144 -359 -360 0
144 -360 -145 0
144 -359 -145 0
-144 359 145 0
-144 360 145 0
-144 359 360 0
145 -360 -361 0
145 -361 -146 0
145 -360 -146 0
-145 360 146 0
-145 361 146 0
-145 360 361 0
146 -361 -362 0
146 -362 -147 0
146 -361 -147 0
-146 361 147 0
-146 362 147 0
-146 361 362 0
147 -362 -363 0
147 -363 -148 0
147 -362 -148 0
-147 362 148 0
-147 363 148 0
-147 362 363 0
148 -363 -364 0
148 -364 -149 0
148 -363 -149 0
-148 363 149 0
-148 364 149 0
-148 363 364 0
149 -364 -365 0
149 -365 -150 0
149 -364 -150 0
-149 364 150 0
-149 365 150 0
-149 364 365 0
150 -365 -366 0
150 -366 -151 0
150 -365 -151 0
-150 365 151 0
-150 366 151 0
-150 365 366 0
151 -366 -367 0
151 -367 -152 0
151 -366 -152 0
-151 366 152 0
-151 367 152 0
-151 366 367 0
152 -367 -368 0
152 -368 -153 0
152 -367 -153 0
-152 367 153 0
-152 368 153 0
-152 367 368 0
153 -368 -369 0
153 -369 -154 0
153 -368 -154 0
-153 368 154 0
-153 369 154 0
-153 368 369 0
154 -369 -370 0
154 -370 -155 0
154 -369 -155 0
-154 369 155 0
-154 370 155 0
-154 369 370 0
155 -370 -371 0
155 -371 -372 0
155 -370 -372 -373 0
-155 370 372 0
-155 371 372 0
-155 371 373 0
-155 370 371 0
156 -375 -159 0
156 -375 -157 0
156 -157 -159 0
-156 157 159 0
-156 375 159 0
-156 375 157 0
-157 -129 -158 0
-157 129 158 0
157 129 -158 0
157 -129 158 0
158 343 -344 0
158 -343 344 0
-158 -343 -344 0
-158 343 344 0
159 -376 -162 0
159 -376 -160 0
159 -160 -162 0
-159 160 162 0
-159 376 162 0
-159 376 160 0
-160 -130 -161 0
-160 130 161 0
160 130 -161 0
160 -130 161 0
161 344 -345 0
161 -344 345 0
-161 -344 -345 0
-161 344 345 0
162 -377 -165 0
162 -377 -163 0
162 -163 -165 0
-162 163 165 0
-162 377 165 0
-162 377 163 0
-163 -131 -164 0
-163 131 164 0
163 131 -164 0
163 -131 164 0
164 345 -346 0
164 -345 346 0
-164 -345 -346 0
-164 345 346 0
165 -378 -168 0
165 -378 -166 0
165 -166 -168 0
-165 166 168 0
-165 378 168 0
-165 378 166 0
-166 -132 -167 0
-166 132 167 0
166 132 -167 0
166 -132 167 0
167 346 -347 0
167 -346 347 0
-167 -346 -347 0
-167 346 347 0
168 -379 -171 0
168 -379 -169 0
168 -169 -171 0
-168 169 171 0
-168 379 171 0
-168 379 169 0
-169 -133 -170 0
-169 133 170 0
169 133 -170 0
169 -133 170 0
170 347 -348 0
170 -347 348 0
-170 -347 -348 0
-170 347 348 0
171 -380 -174 0
171 -380 -172 0
171 -172 -174 0
-171 172 174 0
-171 380 174 0
-171 380 172 0
-172 -134 -173 0
-172 134 173 0
172 134 -173 0
172 -134 173 0
173 348 -349 0
173 -348 349 0
-173 -348 -349 0
-173 348 349 0
174 -381 -177 0
174 -381 -175 0
174 -175 -177 0
-174 175 177 0
-174 381 177 0
-174 381 175 0
-175 -135 -176 0
-175 135 176 0
175 135 -176 0
175 -135 176 0
176 349 -350 0
176 -349 350 0
-176 -349 -350 0
-176 349 350 0
177 -382 -180 0
177 -382 -178 0
177 -178 -180 0
-177 178 180 0
-177 382 180 0
-177 382 178 0
-178 -136 -179 0
-178 136 179 0
178 136 -179 0
178 -136 179 0
179 350 -351 0
179 -350 351 0
-179 -350 -351 0
-179 350 351 0
180 -383 -183 0
180 -383 -181 0
180 -181 -183 0
-180 181 183 0
-180 383 183 0
-180 383 181 0
-181 -137 -182 0
-181 137 182 0
181 137 -182 0
181 -137 182 0
182 351 -352 0
182 -351 352 0
-182 -351 -352 0
-182 351 352 0
183 -384 -186 0
183 -384 -184 0
183 -184 -186 0
-183 184 186 0
-183 384 186 0
-183 384 184 0
-184 -138 -185 0
-184 138 185 0
184 138 -185 0
184 -138 185 0
185 352 -353 0
185 -352 353 0
-185 -352 -353 0
-185 352 353 0
186 -385 -189 0
186 -385 -187 0
186 -187 -189 0
-186 187 189 0
-186 385 189 0
-186 385 187 0
-187 -139 -188 0
-187 139 188 0
187 139 -188 0
187 -139 188 0
188 353 -354 0
188 -353 354 0
-188 -353 -354 0
-188 353 354 0
189 -386 -192 0
189 -386 -190 0
189 -190 -192 0
-189 190 192 0
-189 386 192 0
-189 386 190 0
-190 -140 -191 0
-190 140 191 0
190 140 -191 0
190 -140 191 0
191 354 -355 0
191 -354 355 0
-191 -354 -355 0
-191 354 355 0
192 -387 -195 0
192 -387 -193 0
192 -193 -195 0
-192 193 195 0
-192 387 195 0
-192 387 193 0
-193 -141 -194 0
-193 141 194 0
193 141 -194 0
193 -141 194 0
194 355 -356 0
194 -355 356 0
-194 -355 -356 0
-194 355 356 0
195 -388 -198 0
195 -388 -196 0
195 -196 -198 0
-195 196 198 0
-195 388 198 0
-195 388 196 0
-196 -142 -197 0
-196 142 197 0
196 142 -197 0
196 -142 197 0
197 356 -357 0
197 -356 357 0
-197 -356 -357 0
-197 356 357 0
198 -389 -201 0
198 -389 -199 0
198 -199 -201 0
-198 199 201 0
-198 389 201 0
-198 389 199 0
-199 -143 -200 0
-199 143 200 0
199 143 -200 0
199 -143 200 0
200 357 -358 0
200 -357 358 0
-200 -357 -358 0
-200 357 358 0
201 -390 -204 0
201 -390 -202 0
201 -202 -204 0
-201 202 204 0
-201 390 204 0
-201 390 202 0
-202 -144 -203 0
-202 144 203 0
202 144 -203 0
202 -144 203 0
203 358 -359 0
203 -358 359 0
-203 -358 -359 0
-203 358 359 0
204 -391 -207 0
204 -391 -205 0
204 -205 -207 0
-204 205 207 0
-204 391 207 0
-204 391 205 0
-205 -145 -206 0
-205 145 206 0
205 145 -206 0
205 -145 206 0
206 359 -360 0
206 -359 360 0
-206 -359 -360 0
-206 359 360 0
207 -392 -210 0
207 -392 -208 0
207 -208 -210 0
-207 208 210 0
-207 392 210 0
-207 392 208 0
-208 -146 -209 0
-208 146 209 0
208 146 -209 0
208 -146 209 0
209 360 -361 0
209 -360 361 0
-209 -360 -361 0
-209 360 361 0
210 -393 -213 0
210 -393 -211 0
210 -211 -213 0
-210 211 213 0
-210 393 213 0
-210 393 211 0
-211 -147 -212 0
-211 147 212 0
211 147 -212 0
211 -147 212 0
212 361 -362 0
212 -361 362 0
-212 -361 -362 0
-212 361 362 0
213 -394 -216 0
213 -394 -214 0
213 -214 -216 0
-213 214 216 0
-213 394 216 0
-213 394 214 0
-214 -148 -215 0
-214 148 215 0
214 148 -215 0
214 -148 215 0
215 362 -363 0
215 -362 363 0
-215 -362 -363 0
-215 362 363 0
216 -395 -219 0
216 -395 -217 0
216 -217 -219 0
-216 217 219 0
-216 395 219 0
-216 395 217 0
-217 -149 -218 0
-217 149 218 0
217 149 -218 0
217 -149 218 0
218 363 -364 0
218 -363 364 0
-218 -363 -364 0
-218 363 364 0
219 -396 -222 0
219 -396 -220 0
219 -220 -222 0
-219 220 222 0
-219 396 222 0
-219 396 220 0
-220 -150 -221 0
-220 150 221 0
220 150 -221 0
220 -150 221 0
221 364 -365 0
221 -364 365 0
-221 -364 -365 0
-221 364 365 0
222 -397 -225 0
222 -397 -223 0
222 -223 -225 0
-222 223 225 0
-222 397 225 0
-222 397 223 0
-223 -151 -224 0
-223 151 224 0
223 151 -224 0
223 -151 224 0
224 365 -366 0
224 -365 366 0
-224 -365 -366 0
-224 365 366 0
225 -398 -228 0
225 -398 -226 0
225 -226 -228 0
-225 226 228 0
-225 398 228 0
-225 398 226 0
-226 -152 -227 0
-226 152 227 0
226 152 -227 0
226 -152 227 0
227 366 -367 0
227 -366 367 0
-227 -366 -367 0
-227 366 367 0
228 -399 -229 0
228 -229 -231 0
228 -399 -231 0
-228 399 231 0
-228 229 231 0
-228 399 229 0
229 153 -230 0
229 -153 230 0
-229 -153 -230 0
-229 153 230 0
230 367 -368 0
230 -367 368 0
-230 -367 -368 0
-230 367 368 0
231 -400 -232 0
231 -232 -234 0
231 -400 -234 0
-231 400 234 0
-231 232 234 0
-231 400 232 0
232 154 -233 0
232 -154 233 0
-232 -154 -233 0
-232 154 233 0
233 368 -369 0
233 -368 369 0
-233 -368 -369 0
-233 368 369 0
234 -401 -235 0
234 -235 -237 0
234 -401 -237 0
-234 401 237 0
-234 235 237 0
-234 401 235 0
235 155 -236 0
235 -155 236 0
-235 -155 -236 0
-235 155 236 0
236 369 -370 0
236 -369 370 0
-236 -369 -370 0
-236 369 370 0
237 -402 -238 0
237 -238 -241 0
237 -402 -241 0
-237 402 241 0
-237 238 241 0
-237 402 238 0
238 239 -240 0
238 -239 240 0
-238 -239 -240 0
-238 239 240 0
-239 372 0
-239 371 373 0
239 -371 -372 0
239 -372 -373 0
240 370 -371 0
240 -370 371 0
-240 -370 -371 0
-240 370 371 0
241 -403 -242 0
241 -242 -243 0
241 -403 -243 0
-241 403 243 0
-241 242 243 0
-241 403 242 0
242 -371 -373 0
242 -371 372 0
242 371 -372 373 0
-242 371 -373 0
-242 -371 -372 373 0
-242 371 372 0
243 372 -373 -405 0
243 -372 373 -404 0
243 372 -373 -404 0
243 -372 -404 -405 0
-243 372 373 0
-243 -372 -373 405 0
-243 -372 404 0
-243 404 405 0
244 37 -245 0
244 -37 245 0
-244 -37 -245 0
-244 37 245 0
245 -343 6 0
245 343 -6 0
-245 343 6 0
-245 -343 -6 0
246 159 -247 0
246 -159 247 0
-246 -159 -247 0
-246 159 247 0
247 -375 157 0
247 375 -157 0
-247 375 157 0
-247 -375 -157 0
-248 249 254 256 258 0
-248 249 -254 -256 258 0
248 -258 0
248 -254 256 0
248 -249 0
248 254 -256 0
249 250 -252 0
249 -250 252 0
-249 -250 -252 0
-249 250 252 0
250 40 -251 0
250 -40 251 0
-250 -40 -251 0
-250 40 251 0
251 -344 38 0
251 344 -38 0
-251 344 38 0
-251 -344 -38 0
252 162 -253 0
252 -162 253 0
-252 -162 -253 0
-252 162 253 0
253 -376 160 0
253 376 -160 0
-253 376 160 0
-253 -376 -160 0
254 43 -255 0
254 -43 255 0
-254 -43 -255 0
-254 43 255 0
255 -345 41 0
255 345 -41 0
-255 345 41 0
-255 -345 -41 0
256 165 -257 0
256 -165 257 0
-256 -165 -257 0
-256 165 257 0
257 -377 163 0
257 377 -163 0
-257 377 163 0
-257 -377 -163 0
-258 259 261 263 268 0
-258 -259 -261 263 268 0
258 -263 0
258 259 -261 0
258 -268 0
258 -259 261 0
259 46 -260 0
259 -46 260 0
-259 -46 -260 0
-259 46 260 0
260 -346 44 0
260 346 -44 0
-260 346 44 0
-260 -346 -44 0
261 168 -262 0
261 -168 262 0
-261 -168 -262 0
-261 168 262 0
262 -378 166 0
262 378 -166 0
-262 378 166 0
-262 -378 -166 0
263 264 -266 0
263 -264 266 0
-263 -264 -266 0
-263 264 266 0
264 49 -265 0
264 -49 265 0
-264 -49 -265 0
-264 49 265 0
265 -347 47 0
265 347 -47 0
-265 347 47 0
-265 -347 -47 0
266 171 -267 0
266 -171 267 0
-266 -171 -267 0
-266 171 267 0
267 -379 169 0
267 379 -169 0
-267 379 169 0
-267 -379 -169 0
-268 269 274 276 278 0
-268 269 -274 -276 278 0
268 -278 0
268 -274 276 0
268 -269 0
268 274 -276 0
269 270 -272 0
269 -270 272 0
-269 -270 -272 0
-269 270 272 0
270 52 -271 0
270 -52 271 0
-270 -52 -271 0
-270 52 271 0
271 -348 50 0
271 348 -50 0
-271 348 50 0
-271 -348 -50 0
272 174 -273 0
272 -174 273 0
-272 -174 -273 0
-272 174 273 0
273 -380 172 0
273 380 -172 0
-273 380 172 0
-273 -380 -172 0
274 55 -275 0
274 -55 275 0
-274 -55 -275 0
-274 55 275 0
275 -349 53 0
275 349 -53 0
-275 349 53 0
-275 -349 -53 0
276 177 -277 0
276 -177 277 0
-276 -177 -277 0
-276 177 277 0
277 -381 175 0
277 381 -175 0
-277 381 175 0
-277 -381 -175 0
-278 279 281 283 288 0
-278 -279 -281 283 288 0
278 -283 0
278 279 -281 0
278 -288 0
278 -279 281 0
279 58 -280 0
279 -58 280 0
-279 -58 -280 0
-279 58 280 0
280 -350 56 0
280 350 -56 0
-280 350 56 0
-280 -350 -56 0
281 180 -282 0
281 -180 282 0
-281 -180 -282 0
-281 180 282 0
282 -382 178 0
282 382 -178 0
-282 382 178 0
-282 -382 -178 0
283 284 -286 0
283 -284 286 0
-283 -284 -286 0
-283 284 286 0
284 61 -285 0
284 -61 285 0
-284 -61 -285 0
-284 61 285 0
285 -351 59 0
285 351 -59 0
-285 351 59 0
-285 -351 -59 0
286 183 -287 0
286 -183 287 0
-286 -183 -287 0
-286 183 287 0
287 -383 181 0
287 383 -181 0
-287 383 181 0
-287 -383 -181 0
-288 289 294 296 298 0
-288 289 -294 -296 298 0
288 -298 0
288 -294 296 0
288 -289 0
288 294 -296 0
289 290 -292 0
289 -290 292 0
-289 -290 -292 0
-289 290 292 0
290 64 -291 0
290 -64 291 0
-290 -64 -291 0
-290 64 291 0
291 -352 62 0
291 352 -62 0
-291 352 62 0
-291 -352 -62 0
292 186 -293 0
292 -186 293 0
-292 -186 -293 0
-292 186 293 0
293 -384 184 0
293 384 -184 0
-293 384 184 0
-293 -384 -184 0
294 67 -295 0
294 -67 295 0
-294 -67 -295 0
-294 67 295 0
295 -353 65 0
295 353 -65 0
-295 353 65 0
-295 -353 -65 0
296 189 -297 0
296 -189 297 0
-296 -189 -297 0
-296 189 297 0
297 -385 187 0
297 385 -187 0
-297 385 187 0
-297 -385 -187 0
-298 299 304 306 308 0
-298 299 -304 -306 308 0
298 -308 0
298 -304 306 0
298 -299 0
298 304 -306 0
299 300 -302 0
299 -300 302 0
-299 -300 -302 0
-299 300 302 0
300 70 -301 0
300 -70 301 0
-300 -70 -301 0
-300 70 301 0
301 -354 68 0
301 354 -68 0
-301 354 68 0
-301 -354 -68 0
302 192 -303 0
302 -192 303 0
-302 -192 -303 0
-302 192 303 0
303 -386 190 0
303 386 -190 0
-303 386 190 0
-303 -386 -190 0
304 73 -305 0
304 -73 305 0
-304 -73 -305 0
-304 73 305 0
305 -355 71 0
305 355 -71 0
-305 355 71 0
-305 -355 -71 0
306 195 -307 0
306 -195 307 0
-306 -195 -307 0
-306 195 307 0
307 -387 193 0
307 387 -193 0
-307 387 193 0
-307 -387 -193 0
-308 309 314 316 318 0
-308 309 -314 -316 318 0
308 -318 0
308 -314 316 0
308 -309 0
308 314 -316 0
309 310 -312 0
309 -310 312 0
-309 -310 -312 0
-309 310 312 0
310 76 -311 0
310 -76 311 0
-310 -76 -311 0
-310 76 311 0
311 -356 74 0
311 356 -74 0
-311 356 74 0
-311 -356 -74 0
312 198 -313 0
312 -198 313 0
-312 -198 -313 0
-312 198 313 0
313 -388 196 0
313 388 -196 0
-313 388 196 0
-313 -388 -196 0
314 79 -315 0
314 -79 315 0
-314 -79 -315 0
-314 79 315 0
315 -357 77 0
315 357 -77 0
-315 357 77 0
-315 -357 -77 0
316 201 -317 0
316 -201 317 0
-316 -201 -317 0
-316 201 317 0
317 -389 199 0
317 389 -199 0
-317 389 199 0
-317 -389 -199 0
-318 319 324 326 328 0
-318 319 -324 -326 328 0
318 -328 0
318 -324 326 0
318 -319 0
318 324 -326 0
319 320 -322 0
319 -320 322 0
-319 -320 -322 0
-319 320 322 0
320 82 -321 0
320 -82 321 0
-320 -82 -321 0
-320 82 321 0
321 -358 80 0
321 358 -80 0
-321 358 80 0
-321 -358 -80 0
322 204 -323 0
322 -204 323 0
-322 -204 -323 0
-322 204 323 0
323 -390 202 0
323 390 -202 0
-323 390 202 0
-323 -390 -202 0
324 85 -325 0
324 -85 325 0
-324 -85 -325 0
-324 85 325 0
325 -359 83 0
325 359 -83 0
-325 359 83 0
-325 -359 -83 0
326 207 -327 0
326 -207 327 0
-326 -207 -327 0
-326 207 327 0
327 -391 205 0
327 391 -205 0
-327 391 205 0
-327 -391 -205 0
-328 -329 -331 333 0
-328 329 331 333 0
328 -333 0
328 -329 331 0
328 329 -331 0
329 88 -330 0
329 -88 330 0
-329 -88 -330 0
-329 88 330 0
330 -360 86 0
330 360 -86 0
-330 360 86 0
-330 -360 -86 0
331 210 -332 0
331 -210 332 0
-331 -210 -332 0
-331 210 332 0
332 -392 208 0
332 392 -208 0
-332 392 208 0
-332 -392 -208 0
-333 334 336 -338 -340 0
-333 -334 -336 -338 -340 0
-333 334 336 338 340 0
-333 -334 -336 338 340 0
333 334 -336 0
333 -334 336 0
333 338 -340 0
333 -338 340 0
334 91 -335 0
334 -91 335 0
-334 -91 -335 0
-334 91 335 0
335 -361 89 0
335 361 -89 0
-335 361 89 0
-335 -361 -89 0
336 213 -337 0
336 -213 337 0
-336 -213 -337 0
-336 213 337 0
337 -393 211 0
337 393 -211 0
-337 393 211 0
-337 -393 -211 0
338 94 -339 0
338 -94 339 0
-338 -94 -339 0
-338 94 339 0
339 -362 92 0
339 362 -92 0
-339 362 92 0
-339 -362 -92 0
340 216 -341 0
340 -216 341 0
-340 -216 -341 0
-340 216 341 0
341 -394 214 0
341 394 -214 0
-341 394 214 0
-341 -394 -214 0
-406 0
2 0

